words_hard_train/4129.qaiger
aag 101 16 0 1 85
2
4
8
12
16
20
24
56
64
76
78
82
86
90
94
112
202
6 3 5
10 6 9
14 10 13
18 14 17
22 18 21
26 22 25
28 2 4
30 29 9
32 30 7
34 32 12
36 11 12
38 37 15
40 35 39
42 15 16
44 43 19
46 41 44
48 46 21
50 27 49
52 23 24
54 51 53
58 55 56
60 54 57
62 59 61
66 62 64
68 47 19
70 69 21
72 68 20
74 71 73
80 77 79
84 80 83
88 84 87
92 88 91
96 93 94
98 92 95
100 97 99
102 74 100
104 53 27
106 104 48
108 105 49
110 107 109
114 99 112
116 98 113
118 115 117
120 110 118
122 103 121
124 33 38
126 125 35
128 126 87
130 4 76
132 131 83
134 133 29
136 6 77
138 31 79
140 137 139
142 134 140
144 28 8
146 145 31
148 147 78
150 143 149
152 151 85
154 129 152
156 127 86
158 157 89
160 155 158
162 40 45
164 163 47
166 89 90
168 167 93
170 164 168
172 161 171
174 165 169
176 173 175
178 75 101
180 176 179
182 122 181
184 111 119
186 183 185
188 186 116
190 67 189
192 187 117
194 63 65
196 193 195
198 190 197
200 66 188
202 199 201
i0 2 y1[0]
i1 2 y1[1]
i2 2 y1[2]
i3 2 y1[3]
i4 2 y1[4]
i5 2 y1[5]
i6 2 y1[6]
i7 2 y1[7]
i8 1 x2[7]
i9 1 x2[0]
i10 1 x2[2]
i11 1 x2[1]
i12 1 x2[3]
i13 1 x2[4]
i14 1 x2[5]
i15 1 x2[6]
o0 bv[0]
c
simplified
  <=
    1 x2
    add
      >> 4
        1
      subtract
        -118
        2 y1
