words_hard_train/4129.qaiger.qdimacs
p cnf 101 256
a 32 38 39 41 43 45 47 56 0
e 1 2 3 4 5 6 7 8 9 10 11 12 13 14 15 16 17 18 19 20 21 22 23 24 25 26 27 28 29 30 31 33 34 35 36 37 40 42 44 46 48 49 50 51 52 53 54 55 57 58 59 60 61 62 63 64 65 66 67 68 69 70 71 72 73 74 75 76 77 78 79 80 81 82 83 84 85 86 87 88 89 90 91 92 93 94 95 96 97 98 99 100 101 0
1 2 3 0
-1 -3 0
-2 -3 0
-3 4 5 0
3 -5 0
-4 -5 0
-5 6 7 0
5 -7 0
-6 -7 0
-7 8 9 0
7 -9 0
-8 -9 0
-9 10 11 0
9 -11 0
-10 -11 0
-11 12 13 0
11 -13 0
-12 -13 0
-1 -2 14 0
1 -14 0
2 -14 0
14 4 15 0
-14 -15 0
-4 -15 0
-15 3 16 0
15 -16 0
-3 -16 0
-16 -6 17 0
16 -17 0
6 -17 0
5 -6 18 0
-5 -18 0
6 -18 0
18 7 19 0
-18 -19 0
-7 -19 0
17 19 20 0
-17 -20 0
-19 -20 0
7 -8 21 0
-7 -21 0
8 -21 0
21 9 22 0
-21 -22 0
-9 -22 0
20 -22 23 0
-20 -23 0
22 -23 0
-23 10 24 0
23 -24 0
-10 -24 0
13 24 25 0
-13 -25 0
-24 -25 0
11 -12 26 0
-11 -26 0
12 -26 0
25 26 27 0
-25 -27 0
-26 -27 0
27 -28 29 0
-27 -29 0
28 -29 0
-27 28 30 0
27 -30 0
-28 -30 0
29 30 31 0
-29 -31 0
-30 -31 0
-31 -32 33 0
31 -33 0
32 -33 0
23 9 34 0
-23 -34 0
-9 -34 0
34 10 35 0
-34 -35 0
-10 -35 0
-34 -10 36 0
34 -36 0
10 -36 0
35 36 37 0
-35 -37 0
-36 -37 0
38 39 40 0
-38 -40 0
-39 -40 0
-40 41 42 0
40 -42 0
-41 -42 0
-42 43 44 0
42 -44 0
-43 -44 0
-44 45 46 0
44 -46 0
-45 -46 0
46 -47 48 0
-46 -48 0
47 -48 0
-46 47 49 0
46 -49 0
-47 -49 0
48 49 50 0
-48 -50 0
-49 -50 0
-37 -50 51 0
37 -51 0
50 -51 0
26 13 52 0
-26 -52 0
-13 -52 0
-52 -24 53 0
52 -53 0
24 -53 0
52 24 54 0
-52 -54 0
-24 -54 0
53 54 55 0
-53 -55 0
-54 -55 0
49 -56 57 0
-49 -57 0
56 -57 0
-49 56 58 0
49 -58 0
-56 -58 0
57 58 59 0
-57 -59 0
-58 -59 0
-55 -59 60 0
55 -60 0
59 -60 0
51 60 61 0
-51 -61 0
-60 -61 0
16 -19 62 0
-16 -62 0
19 -62 0
62 17 63 0
-62 -63 0
-17 -63 0
-63 43 64 0
63 -64 0
-43 -64 0
-2 -38 65 0
2 -65 0
38 -65 0
65 41 66 0
-65 -66 0
-41 -66 0
66 14 67 0
-66 -67 0
-14 -67 0
-3 38 68 0
3 -68 0
-38 -68 0
15 39 69 0
-15 -69 0
-39 -69 0
68 69 70 0
-68 -70 0
-69 -70 0
-67 -70 71 0
67 -71 0
70 -71 0
-14 -4 72 0
14 -72 0
4 -72 0
72 15 73 0
-72 -73 0
-15 -73 0
73 -39 74 0
-73 -74 0
39 -74 0
71 74 75 0
-71 -75 0
-74 -75 0
75 42 76 0
-75 -76 0
-42 -76 0
64 -76 77 0
-64 -77 0
76 -77 0
63 -43 78 0
-63 -78 0
43 -78 0
78 44 79 0
-78 -79 0
-44 -79 0
77 -79 80 0
-77 -80 0
79 -80 0
-20 22 81 0
20 -81 0
-22 -81 0
81 23 82 0
-81 -82 0
-23 -82 0
44 -45 83 0
-44 -83 0
45 -83 0
83 46 84 0
-83 -84 0
-46 -84 0
-82 -84 85 0
82 -85 0
84 -85 0
80 85 86 0
-80 -86 0
-85 -86 0
82 84 87 0
-82 -87 0
-84 -87 0
86 87 88 0
-86 -88 0
-87 -88 0
37 50 89 0
-37 -89 0
-50 -89 0
-88 89 90 0
88 -90 0
-89 -90 0
-61 90 91 0
61 -91 0
-90 -91 0
55 59 92 0
-55 -92 0
-59 -92 0
91 92 93 0
-91 -93 0
-92 -93 0
-93 -58 94 0
93 -94 0
58 -94 0
33 94 95 0
-33 -95 0
-94 -95 0
93 58 96 0
-93 -96 0
-58 -96 0
31 32 97 0
-31 -97 0
-32 -97 0
96 97 98 0
-96 -98 0
-97 -98 0
-95 98 99 0
95 -99 0
-98 -99 0
-33 -94 100 0
33 -100 0
94 -100 0
99 100 101 0
-99 -101 0
-100 -101 0
101 0
